
n_res = 8;
rcap = [29, 31, 30, 30, 1181, 1279, 1198, 1353];
rtype = [1, 1, 1, 1, 2, 2, 2, 2];
n_tasks = 100;
modes =  [{1, 2, 3, 4, 5, 6, 7, 8, 9}, {10, 11, 12, 13, 14, 15, 16, 17, 18}, {19, 20, 21, 22, 23, 24, 25, 26, 27}, {28, 29, 30, 31, 32, 33, 34, 35, 36}, {37, 38, 39, 40, 41, 42, 43, 44, 45}, {46, 47, 48, 49, 50, 51, 52, 53, 54}, {55, 56, 57, 58, 59, 60, 61, 62, 63}, {64, 65, 66, 67, 68, 69, 70, 71, 72}, {73, 74, 75, 76, 77, 78, 79, 80, 81}, {82, 83, 84, 85, 86, 87, 88, 89, 90}, {91, 92, 93, 94, 95, 96, 97, 98, 99}, {100, 101, 102, 103, 104, 105, 106, 107, 108}, {109, 110, 111, 112, 113, 114, 115, 116, 117}, {118, 119, 120, 121, 122, 123, 124, 125, 126}, {127, 128, 129, 130, 131, 132, 133, 134, 135}, {136, 137, 138, 139, 140, 141, 142, 143, 144}, {145, 146, 147, 148, 149, 150, 151, 152, 153}, {154, 155, 156, 157, 158, 159, 160, 161, 162}, {163, 164, 165, 166, 167, 168, 169, 170, 171}, {172, 173, 174, 175, 176, 177, 178, 179, 180}, {181, 182, 183, 184, 185, 186, 187, 188, 189}, {190, 191, 192, 193, 194, 195, 196, 197, 198}, {199, 200, 201, 202, 203, 204, 205, 206, 207}, {208, 209, 210, 211, 212, 213, 214, 215, 216}, {217, 218, 219, 220, 221, 222, 223, 224, 225}, {226, 227, 228, 229, 230, 231, 232, 233, 234}, {235, 236, 237, 238, 239, 240, 241, 242, 243}, {244, 245, 246, 247, 248, 249, 250, 251, 252}, {253, 254, 255, 256, 257, 258, 259, 260, 261}, {262, 263, 264, 265, 266, 267, 268, 269, 270}, {271, 272, 273, 274, 275, 276, 277, 278, 279}, {280, 281, 282, 283, 284, 285, 286, 287, 288}, {289, 290, 291, 292, 293, 294, 295, 296, 297}, {298, 299, 300, 301, 302, 303, 304, 305, 306}, {307, 308, 309, 310, 311, 312, 313, 314, 315}, {316, 317, 318, 319, 320, 321, 322, 323, 324}, {325, 326, 327, 328, 329, 330, 331, 332, 333}, {334, 335, 336, 337, 338, 339, 340, 341, 342}, {343, 344, 345, 346, 347, 348, 349, 350, 351}, {352, 353, 354, 355, 356, 357, 358, 359, 360}, {361, 362, 363, 364, 365, 366, 367, 368, 369}, {370, 371, 372, 373, 374, 375, 376, 377, 378}, {379, 380, 381, 382, 383, 384, 385, 386, 387}, {388, 389, 390, 391, 392, 393, 394, 395, 396}, {397, 398, 399, 400, 401, 402, 403, 404, 405}, {406, 407, 408, 409, 410, 411, 412, 413, 414}, {415, 416, 417, 418, 419, 420, 421, 422, 423}, {424, 425, 426, 427, 428, 429, 430, 431, 432}, {433, 434, 435, 436, 437, 438, 439, 440, 441}, {442, 443, 444, 445, 446, 447, 448, 449, 450}, {451, 452, 453, 454, 455, 456, 457, 458, 459}, {460, 461, 462, 463, 464, 465, 466, 467, 468}, {469, 470, 471, 472, 473, 474, 475, 476, 477}, {478, 479, 480, 481, 482, 483, 484, 485, 486}, {487, 488, 489, 490, 491, 492, 493, 494, 495}, {496, 497, 498, 499, 500, 501, 502, 503, 504}, {505, 506, 507, 508, 509, 510, 511, 512, 513}, {514, 515, 516, 517, 518, 519, 520, 521, 522}, {523, 524, 525, 526, 527, 528, 529, 530, 531}, {532, 533, 534, 535, 536, 537, 538, 539, 540}, {541, 542, 543, 544, 545, 546, 547, 548, 549}, {550, 551, 552, 553, 554, 555, 556, 557, 558}, {559, 560, 561, 562, 563, 564, 565, 566, 567}, {568, 569, 570, 571, 572, 573, 574, 575, 576}, {577, 578, 579, 580, 581, 582, 583, 584, 585}, {586, 587, 588, 589, 590, 591, 592, 593, 594}, {595, 596, 597, 598, 599, 600, 601, 602, 603}, {604, 605, 606, 607, 608, 609, 610, 611, 612}, {613, 614, 615, 616, 617, 618, 619, 620, 621}, {622, 623, 624, 625, 626, 627, 628, 629, 630}, {631, 632, 633, 634, 635, 636, 637, 638, 639}, {640, 641, 642, 643, 644, 645, 646, 647, 648}, {649, 650, 651, 652, 653, 654, 655, 656, 657}, {658, 659, 660, 661, 662, 663, 664, 665, 666}, {667, 668, 669, 670, 671, 672, 673, 674, 675}, {676, 677, 678, 679, 680, 681, 682, 683, 684}, {685, 686, 687, 688, 689, 690, 691, 692, 693}, {694, 695, 696, 697, 698, 699, 700, 701, 702}, {703, 704, 705, 706, 707, 708, 709, 710, 711}, {712, 713, 714, 715, 716, 717, 718, 719, 720}, {721, 722, 723, 724, 725, 726, 727, 728, 729}, {730, 731, 732, 733, 734, 735, 736, 737, 738}, {739, 740, 741, 742, 743, 744, 745, 746, 747}, {748, 749, 750, 751, 752, 753, 754, 755, 756}, {757, 758, 759, 760, 761, 762, 763, 764, 765}, {766, 767, 768, 769, 770, 771, 772, 773, 774}, {775, 776, 777, 778, 779, 780, 781, 782, 783}, {784, 785, 786, 787, 788, 789, 790, 791, 792}, {793, 794, 795, 796, 797, 798, 799, 800, 801}, {802, 803, 804, 805, 806, 807, 808, 809, 810}, {811, 812, 813, 814, 815, 816, 817, 818, 819}, {820, 821, 822, 823, 824, 825, 826, 827, 828}, {829, 830, 831, 832, 833, 834, 835, 836, 837}, {838, 839, 840, 841, 842, 843, 844, 845, 846}, {847, 848, 849, 850, 851, 852, 853, 854, 855}, {856, 857, 858, 859, 860, 861, 862, 863, 864}, {865, 866, 867, 868, 869, 870, 871, 872, 873}, {874, 875, 876, 877, 878, 879, 880, 881, 882}, {883, 884, 885, 886, 887, 888, 889, 890, 891}, {892, 893, 894, 895, 896, 897, 898, 899, 900}];
succ =  [{29, 26, 24, 21, 20, 18, 17, 16, 15, 14, 13}, {26, 24, 21, 20, 19, 18, 17, 15, 13, 12}, {20, 19, 18, 15, 14, 13, 11}, {29, 27, 24, 20, 19, 15}, {28, 27, 21, 20, 15, 12}, {29, 28, 27, 20, 15}, {19, 15}, {30, 27, 26, 21, 19}, {33, 29, 25, 22, 19}, {35, 33, 31, 27, 25, 23}, {37, 33, 32, 30, 29, 28, 27}, {34, 33, 31, 29, 25, 23}, {37, 36, 33, 32, 30, 28, 27}, {33, 32, 28, 27, 23}, {34, 33, 25, 23}, {34, 33, 19}, {40, 36, 34, 32, 28}, {45, 43, 40, 39, 38, 37, 36, 35, 32}, {42, 31, 28}, {43, 42, 40, 39, 36, 35, 34}, {43, 36, 35, 33, 32}, {45, 37, 28}, {48, 43, 41, 40, 38, 37, 36}, {48, 43, 41, 40, 39, 36, 34}, {43, 39, 32, 30}, {39, 35, 34, 32}, {42, 41, 40, 39, 34}, {43, 39, 38, 35}, {49, 48, 43, 40, 39, 36}, {47, 46, 45, 44, 42, 41}, {57, 49, 47, 46, 45, 40}, {48, 47, 44, 42, 41}, {48, 47, 46, 40, 39}, {57, 56, 54, 52, 50, 47, 46, 45, 44}, {51, 48, 44, 41}, {57, 56, 54, 53, 52, 50, 46, 44}, {56, 54, 53, 44, 42}, {57, 56, 54, 53, 50, 46, 44}, {59, 57, 53, 52, 51, 50, 44}, {59, 56, 54, 53, 52, 50, 44}, {68, 62, 59, 57, 56, 54, 53, 50, 49}, {59, 55, 52, 51, 50, 49}, {68, 62, 57, 56, 50, 47}, {66, 65, 64, 62, 61, 58, 55}, {70, 68, 65, 64, 63, 62, 61, 60, 58}, {68, 65, 64, 63, 60, 59, 51}, {73, 70, 65, 63, 53}, {76, 73, 71, 70, 69, 68, 65, 64, 61, 59}, {73, 70, 69, 65, 64, 60, 58}, {73, 70, 69, 63, 60, 58}, {77, 76, 73, 72, 71, 70, 69, 61}, {76, 73, 70, 69, 68, 66, 64}, {69, 64, 61, 58}, {73, 71, 69, 63, 60}, {73, 70, 63, 60}, {79, 77, 76, 74, 73, 72, 69}, {76, 75, 67, 66}, {91, 83, 79, 78, 76, 74, 71}, {79, 78, 77, 75, 72, 67}, {91, 83, 82, 79, 78, 75, 74, 72}, {83, 81, 78, 75, 67}, {81, 80, 79, 73, 69}, {83, 81, 78, 77, 67}, {79, 77, 74, 72}, {79, 78, 67}, {100, 99, 90, 87, 84, 83, 82, 81, 80, 79, 77}, {99, 91, 89, 84, 82, 74}, {99, 89, 87, 84, 74}, {100, 96, 91, 90, 89, 86, 84, 83, 78}, {100, 99, 98, 96, 90, 85, 84, 80, 79}, {100, 99, 98, 95, 86, 81, 75}, {100, 99, 98, 95, 89, 87, 86, 85, 84, 81}, {95, 86, 83, 75}, {100, 98, 96, 94, 90, 86, 85, 80}, {97, 89, 87, 85, 84}, {94, 88, 87, 82}, {97, 96, 95, 94, 89, 88}, {99, 98, 97, 95, 94, 93, 92}, {95, 94, 93, 89, 86}, {97, 95, 93, 92}, {96, 94, 93, 92}, {98, 96, 95, 92}, {94, 92, 88}, {94, 93, 92}, {92, 88}, {97, 92}, {96, 93}, {93}, {92}, {93}, {95}, {}, {}, {}, {}, {}, {}, {}, {}, {}];
n_opt = 900;
dur = [4, 5, 6, 8, 9, 10, 16, 18, 21, 2, 5, 9, 10, 12, 13, 14, 15, 29, 2, 5, 6, 7, 8, 15, 19, 21, 30, 6, 14, 18, 19, 21, 22, 23, 27, 28, 1, 2, 4, 5, 11, 12, 13, 18, 25, 9, 10, 12, 22, 23, 25, 26, 28, 29, 5, 6, 9, 14, 20, 21, 25, 28, 29, 1, 9, 16, 17, 20, 21, 23, 29, 30, 1, 2, 10, 12, 17, 22, 28, 29, 30, 3, 4, 5, 11, 18, 19, 20, 22, 26, 1, 6, 13, 15, 16, 17, 18, 26, 28, 2, 6, 7, 8, 9, 17, 18, 23, 26, 2, 3, 5, 6, 7, 18, 26, 27, 30, 4, 5, 6, 8, 16, 21, 22, 27, 29, 4, 8, 11, 20, 21, 22, 23, 27, 28, 6, 8, 11, 14, 21, 22, 23, 26, 27, 1, 9, 10, 11, 12, 18, 21, 24, 26, 4, 7, 12, 13, 18, 20, 25, 27, 30, 4, 5, 6, 11, 15, 16, 23, 24, 26, 1, 2, 7, 14, 15, 16, 17, 19, 26, 3, 5, 8, 12, 13, 18, 23, 24, 26, 3, 4, 6, 7, 10, 15, 16, 26, 30, 6, 7, 8, 11, 14, 18, 22, 24, 29, 1, 3, 5, 10, 11, 12, 22, 26, 30, 3, 4, 5, 6, 11, 12, 14, 16, 29, 7, 8, 13, 14, 15, 19, 20, 21, 30, 1, 2, 3, 4, 7, 8, 9, 10, 23, 3, 4, 5, 10, 11, 15, 16, 17, 21, 1, 3, 5, 7, 21, 22, 23, 28, 29, 1, 3, 5, 6, 7, 8, 14, 15, 22, 1, 7, 8, 9, 14, 15, 22, 23, 24, 2, 3, 4, 6, 8, 9, 19, 25, 27, 1, 4, 5, 7, 12, 21, 27, 28, 29, 9, 10, 20, 25, 26, 27, 28, 29, 30, 1, 2, 3, 10, 12, 15, 17, 18, 30, 1, 5, 12, 16, 23, 27, 28, 29, 30, 1, 2, 6, 9, 10, 17, 20, 26, 29, 1, 7, 10, 13, 16, 20, 24, 28, 30, 4, 14, 16, 17, 18, 19, 21, 26, 29, 2, 13, 14, 15, 16, 17, 20, 26, 30, 2, 4, 5, 10, 14, 16, 17, 24, 26, 9, 10, 12, 17, 21, 25, 26, 28, 29, 3, 8, 9, 10, 20, 24, 26, 28, 30, 2, 3, 15, 17, 18, 19, 22, 23, 25, 2, 7, 8, 10, 20, 22, 24, 25, 26, 1, 3, 4, 5, 11, 12, 13, 21, 24, 14, 16, 18, 19, 23, 24, 25, 29, 30, 3, 4, 7, 13, 17, 19, 20, 23, 29, 2, 4, 5, 9, 10, 12, 14, 22, 23, 4, 9, 14, 18, 21, 22, 23, 24, 25, 2, 5, 9, 10, 12, 13, 15, 26, 27, 7, 9, 11, 12, 16, 19, 20, 25, 30, 1, 2, 6, 7, 8, 12, 16, 20, 29, 1, 3, 11, 12, 22, 26, 27, 28, 30, 5, 6, 8, 9, 17, 21, 22, 24, 30, 1, 8, 9, 17, 18, 23, 25, 26, 29, 1, 6, 7, 9, 15, 17, 20, 21, 24, 1, 2, 5, 9, 15, 17, 18, 25, 26, 9, 12, 16, 17, 18, 19, 21, 23, 26, 1, 2, 4, 10, 18, 19, 22, 28, 29, 3, 4, 5, 6, 7, 9, 10, 15, 16, 5, 9, 17, 18, 22, 23, 24, 25, 30, 2, 9, 10, 14, 19, 20, 21, 24, 30, 7, 9, 12, 18, 21, 24, 25, 26, 27, 5, 6, 7, 10, 11, 12, 21, 22, 30, 7, 8, 9, 15, 19, 21, 22, 23, 27, 2, 4, 7, 8, 13, 14, 27, 29, 30, 6, 7, 8, 9, 10, 11, 12, 16, 17, 2, 3, 4, 7, 12, 13, 14, 21, 22, 8, 9, 10, 11, 12, 13, 14, 23, 30, 2, 14, 20, 22, 23, 24, 25, 26, 27, 3, 6, 7, 9, 18, 19, 21, 25, 29, 3, 5, 8, 9, 15, 19, 20, 26, 27, 1, 4, 12, 14, 20, 21, 22, 23, 27, 7, 9, 14, 15, 16, 17, 18, 22, 26, 4, 8, 9, 10, 13, 14, 15, 17, 20, 2, 3, 4, 5, 15, 17, 19, 27, 29, 4, 6, 10, 12, 20, 21, 24, 28, 29, 3, 11, 13, 15, 16, 20, 23, 24, 28, 7, 10, 12, 13, 22, 25, 26, 28, 30, 6, 16, 17, 18, 19, 20, 21, 22, 29, 3, 11, 14, 15, 18, 19, 23, 25, 26, 1, 2, 6, 9, 15, 16, 18, 19, 23, 1, 4, 5, 6, 8, 14, 19, 23, 29, 3, 8, 10, 11, 14, 16, 17, 29, 30, 3, 6, 8, 9, 16, 17, 21, 24, 30, 1, 5, 10, 15, 18, 20, 21, 22, 29, 1, 2, 3, 4, 7, 18, 23, 24, 29, 9, 12, 16, 21, 22, 25, 26, 27, 28, 1, 9, 10, 13, 16, 21, 28, 29, 30, 2, 3, 5, 9, 18, 22, 24, 27, 28, 3, 5, 7, 14, 18, 26, 27, 28, 29, 2, 6, 7, 8, 9, 10, 17, 18, 22, 2, 5, 6, 16, 17, 18, 19, 20, 21, 1, 3, 10, 15, 17, 20, 25, 28, 30, 3, 11, 13, 16, 19, 21, 22, 23, 27, 10, 11, 12, 13, 21, 22, 25, 26, 30, 8, 9, 10, 14, 18, 19, 21, 23, 24, 1, 3, 5, 13, 14, 15, 19, 24, 30, 3, 6, 9, 17, 25, 27, 28, 29, 30];
rreq = [|4, 4, 4, 3, 3, 3, 3, 2, 2, 4, 4, 4, 4, 4, 4, 4, 4, 4, 4, 3, 3, 3, 3, 2, 2, 2, 2, 4, 4, 4, 3, 3, 2, 1, 1, 1, 3, 3, 3, 3, 2, 2, 1, 1, 1, 4, 4, 4, 3, 3, 3, 3, 2, 2, 1, 1, 1, 1, 1, 1, 1, 1, 1, 5, 4, 4, 3, 3, 2, 1, 1, 1, 4, 3, 3, 2, 2, 2, 2, 1, 1, 4, 4, 4, 3, 3, 3, 2, 2, 2, 2, 1, 1, 1, 1, 1, 1, 1, 1, 3, 3, 3, 3, 3, 3, 3, 3, 3, 3, 3, 3, 2, 2, 2, 1, 1, 1, 4, 3, 3, 3, 3, 3, 3, 3, 3, 5, 5, 5, 5, 5, 5, 5, 5, 5, 3, 2, 2, 2, 1, 1, 1, 1, 1, 4, 3, 3, 3, 3, 3, 3, 3, 3, 3, 3, 3, 3, 3, 3, 3, 3, 3, 4, 3, 3, 2, 2, 2, 1, 1, 1, 3, 3, 3, 3, 3, 3, 3, 3, 3, 1, 1, 1, 1, 1, 1, 1, 1, 1, 4, 4, 4, 4, 4, 4, 4, 4, 4, 3, 3, 3, 3, 2, 2, 2, 2, 2, 3, 3, 3, 3, 2, 2, 2, 2, 2, 2, 2, 2, 2, 2, 2, 2, 2, 2, 1, 1, 1, 1, 1, 1, 1, 1, 1, 3, 2, 2, 2, 2, 2, 2, 2, 2, 4, 4, 3, 3, 3, 2, 2, 1, 1, 4, 4, 4, 4, 4, 4, 4, 4, 4, 5, 4, 4, 3, 3, 3, 3, 2, 2, 4, 3, 3, 3, 2, 2, 2, 2, 2, 2, 2, 2, 2, 2, 2, 2, 2, 2, 4, 3, 3, 3, 3, 3, 3, 3, 3, 1, 1, 1, 1, 1, 1, 1, 1, 1, 5, 4, 4, 4, 4, 4, 4, 4, 4, 2, 2, 2, 2, 2, 2, 2, 2, 2, 2, 2, 2, 2, 2, 2, 2, 2, 2, 2, 1, 1, 1, 1, 1, 1, 1, 1, 4, 4, 4, 4, 4, 4, 4, 4, 4, 3, 3, 3, 3, 2, 2, 2, 2, 2, 5, 4, 4, 4, 4, 3, 3, 3, 3, 5, 4, 4, 4, 3, 3, 3, 2, 2, 2, 2, 2, 2, 2, 2, 2, 2, 2, 4, 4, 4, 4, 4, 4, 4, 4, 4, 5, 4, 4, 4, 4, 3, 3, 3, 3, 5, 5, 5, 5, 5, 5, 5, 5, 5, 3, 3, 3, 3, 3, 3, 3, 3, 3, 3, 2, 2, 2, 2, 2, 2, 2, 2, 5, 4, 4, 4, 4, 4, 4, 4, 4, 5, 4, 4, 3, 3, 3, 3, 2, 2, 5, 4, 3, 3, 2, 2, 1, 1, 1, 2, 2, 2, 2, 2, 2, 2, 2, 2, 5, 5, 5, 5, 5, 5, 5, 5, 5, 5, 4, 4, 4, 4, 4, 4, 4, 4, 4, 3, 3, 3, 3, 3, 3, 3, 3, 4, 4, 4, 4, 3, 3, 3, 3, 3, 2, 2, 2, 2, 1, 1, 1, 1, 1, 3, 3, 3, 3, 3, 3, 3, 3, 3, 3, 3, 3, 3, 3, 3, 3, 3, 3, 3, 3, 3, 3, 3, 2, 2, 2, 2, 4, 4, 4, 4, 4, 4, 4, 4, 4, 4, 3, 3, 3, 3, 2, 2, 2, 2, 2, 2, 2, 2, 2, 2, 2, 2, 2, 4, 3, 3, 2, 2, 2, 2, 1, 1, 1, 1, 1, 1, 1, 1, 1, 1, 1, 5, 5, 5, 5, 5, 5, 5, 5, 5, 2, 1, 1, 1, 1, 1, 1, 1, 1, 2, 2, 2, 2, 2, 2, 2, 2, 2, 3, 3, 3, 3, 3, 3, 3, 3, 3, 4, 4, 3, 3, 3, 2, 1, 1, 1, 4, 3, 3, 3, 3, 3, 3, 3, 3, 4, 3, 3, 3, 2, 2, 2, 1, 1, 3, 3, 3, 3, 3, 2, 2, 2, 2, 4, 3, 3, 3, 3, 3, 3, 3, 3, 4, 4, 4, 4, 4, 4, 4, 4, 4, 4, 4, 3, 3, 2, 2, 2, 1, 1, 3, 3, 3, 3, 3, 3, 3, 3, 3, 3, 3, 3, 3, 3, 2, 2, 2, 2, 1, 1, 1, 1, 1, 1, 1, 1, 1, 3, 3, 3, 3, 3, 3, 3, 3, 3, 3, 2, 2, 2, 2, 1, 1, 1, 1, 4, 4, 4, 3, 3, 2, 2, 1, 1, 3, 3, 3, 2, 2, 2, 1, 1, 1, 4, 3, 3, 3, 3, 2, 2, 2, 2, 4, 4, 4, 3, 3, 3, 3, 2, 2, 4, 3, 3, 3, 2, 2, 2, 2, 2, 5, 5, 5, 5, 5, 5, 5, 5, 5, 4, 4, 4, 4, 4, 4, 4, 4, 4, 5, 4, 4, 4, 4, 3, 3, 3, 3, 4, 4, 4, 4, 4, 4, 4, 4, 4, 5, 4, 4, 3, 2, 2, 2, 1, 1, 3, 3, 3, 3, 2, 2, 2, 1, 1, 5, 4, 4, 4, 4, 4, 4, 4, 4, 4, 3, 3, 3, 3, 3, 3, 3, 3, 2, 1, 1, 1, 1, 1, 1, 1, 1, 5, 4, 4, 4, 3, 3, 3, 3, 3, 3, 2, 2, 2, 2, 2, 2, 2, 2, 5, 4, 4, 3, 3, 3, 3, 2, 2, 1, 1, 1, 1, 1, 1, 1, 1, 1, 2, 2, 2, 2, 2, 2, 2, 2, 2
 |5, 4, 4, 4, 4, 3, 3, 3, 3, 4, 3, 3, 3, 2, 2, 2, 2, 2, 4, 4, 4, 4, 4, 4, 4, 4, 4, 5, 4, 3, 3, 2, 2, 1, 1, 1, 3, 3, 3, 3, 3, 3, 3, 3, 3, 1, 1, 1, 1, 1, 1, 1, 1, 1, 5, 4, 4, 4, 3, 3, 3, 2, 2, 5, 5, 5, 5, 5, 5, 5, 5, 5, 5, 4, 4, 4, 4, 3, 3, 3, 3, 3, 3, 3, 3, 3, 3, 3, 3, 3, 2, 2, 2, 2, 2, 1, 1, 1, 1, 4, 4, 4, 4, 3, 3, 2, 2, 2, 5, 4, 4, 4, 3, 3, 3, 3, 3, 1, 1, 1, 1, 1, 1, 1, 1, 1, 2, 2, 2, 2, 2, 1, 1, 1, 1, 4, 3, 3, 3, 3, 3, 3, 3, 3, 4, 3, 3, 3, 3, 2, 2, 2, 2, 4, 3, 3, 2, 2, 2, 2, 1, 1, 3, 3, 3, 3, 3, 3, 3, 3, 3, 4, 4, 4, 4, 4, 4, 4, 4, 4, 4, 4, 3, 3, 3, 2, 2, 1, 1, 5, 4, 4, 4, 3, 3, 3, 3, 3, 4, 4, 4, 4, 3, 3, 3, 3, 3, 3, 3, 3, 3, 3, 3, 3, 3, 3, 1, 1, 1, 1, 1, 1, 1, 1, 1, 2, 2, 2, 2, 1, 1, 1, 1, 1, 4, 4, 4, 4, 4, 4, 4, 4, 4, 2, 1, 1, 1, 1, 1, 1, 1, 1, 2, 2, 2, 2, 2, 2, 2, 2, 2, 4, 4, 4, 4, 4, 4, 4, 4, 4, 2, 2, 2, 2, 2, 2, 2, 2, 2, 5, 4, 3, 3, 3, 2, 1, 1, 1, 2, 1, 1, 1, 1, 1, 1, 1, 1, 2, 2, 2, 2, 2, 2, 2, 2, 2, 5, 4, 3, 3, 2, 2, 1, 1, 1, 4, 4, 4, 4, 4, 3, 3, 3, 3, 3, 3, 3, 3, 3, 3, 3, 3, 3, 2, 2, 2, 2, 2, 2, 2, 2, 2, 2, 2, 2, 2, 2, 2, 2, 2, 2, 3, 3, 3, 3, 2, 2, 2, 1, 1, 3, 3, 3, 3, 3, 3, 3, 3, 3, 2, 2, 2, 2, 2, 1, 1, 1, 1, 5, 5, 5, 5, 5, 5, 5, 5, 5, 4, 4, 4, 3, 3, 2, 2, 1, 1, 5, 5, 5, 5, 5, 5, 5, 5, 5, 1, 1, 1, 1, 1, 1, 1, 1, 1, 3, 3, 3, 3, 2, 2, 1, 1, 1, 4, 3, 3, 3, 3, 3, 3, 3, 3, 1, 1, 1, 1, 1, 1, 1, 1, 1, 5, 4, 3, 3, 2, 2, 1, 1, 1, 1, 1, 1, 1, 1, 1, 1, 1, 1, 3, 2, 2, 2, 1, 1, 1, 1, 1, 5, 4, 3, 3, 2, 2, 2, 1, 1, 5, 4, 4, 4, 4, 4, 4, 4, 4, 5, 5, 5, 5, 5, 5, 5, 5, 5, 2, 2, 2, 2, 2, 1, 1, 1, 1, 3, 3, 3, 2, 2, 2, 2, 1, 1, 5, 4, 4, 4, 4, 4, 4, 4, 4, 2, 2, 2, 2, 1, 1, 1, 1, 1, 3, 3, 3, 3, 3, 2, 2, 2, 2, 4, 4, 4, 4, 4, 4, 4, 4, 4, 3, 3, 3, 2, 2, 2, 2, 1, 1, 1, 1, 1, 1, 1, 1, 1, 1, 1, 4, 4, 4, 4, 3, 3, 3, 3, 3, 4, 4, 4, 4, 4, 4, 4, 4, 4, 3, 3, 3, 3, 3, 3, 3, 3, 3, 5, 4, 4, 4, 4, 4, 4, 4, 4, 4, 3, 3, 3, 2, 2, 2, 2, 2, 4, 3, 3, 3, 2, 2, 2, 2, 2, 3, 3, 3, 3, 2, 2, 1, 1, 1, 1, 1, 1, 1, 1, 1, 1, 1, 1, 3, 3, 3, 2, 2, 2, 2, 1, 1, 4, 3, 3, 3, 3, 3, 3, 3, 3, 4, 4, 4, 3, 2, 2, 2, 1, 1, 5, 4, 4, 4, 4, 3, 3, 3, 3, 5, 5, 5, 5, 5, 5, 5, 5, 5, 2, 2, 2, 2, 2, 1, 1, 1, 1, 5, 4, 4, 4, 4, 4, 4, 4, 4, 4, 3, 3, 3, 3, 3, 3, 3, 3, 5, 4, 4, 4, 4, 4, 4, 4, 4, 2, 2, 2, 2, 2, 2, 2, 2, 2, 4, 4, 4, 4, 4, 4, 4, 4, 4, 5, 4, 4, 4, 3, 3, 2, 2, 2, 5, 4, 4, 3, 2, 2, 2, 1, 1, 4, 3, 3, 3, 2, 2, 2, 2, 2, 5, 4, 4, 3, 3, 2, 1, 1, 1, 5, 4, 4, 4, 4, 4, 4, 4, 4, 5, 5, 5, 5, 5, 5, 5, 5, 5, 5, 5, 5, 5, 5, 5, 5, 5, 5, 3, 2, 2, 2, 1, 1, 1, 1, 1, 5, 5, 5, 5, 5, 5, 5, 5, 5, 2, 2, 2, 2, 2, 2, 2, 2, 2, 3, 3, 3, 3, 3, 3, 3, 3, 3, 5, 4, 4, 4, 3, 3, 2, 2, 2, 2, 2, 2, 2, 2, 1, 1, 1, 1, 5, 4, 4, 4, 4, 4, 4, 4, 4, 5, 5, 5, 5, 5, 5, 5, 5, 5, 5, 5, 5, 5, 5, 5, 5, 5, 5, 5, 4, 4, 4, 3, 3, 3, 3, 3, 4, 4, 3, 3, 2, 2, 2, 1, 1
 |4, 3, 3, 3, 2, 2, 2, 2, 2, 3, 3, 3, 3, 2, 2, 1, 1, 1, 3, 3, 3, 3, 2, 2, 2, 1, 1, 3, 3, 3, 2, 2, 2, 2, 1, 1, 4, 4, 4, 4, 3, 3, 3, 3, 3, 2, 2, 2, 2, 2, 1, 1, 1, 1, 4, 3, 3, 3, 3, 3, 3, 3, 3, 3, 2, 2, 2, 1, 1, 1, 1, 1, 3, 2, 2, 2, 2, 2, 2, 2, 2, 3, 3, 3, 3, 2, 2, 2, 2, 2, 5, 4, 4, 3, 2, 2, 1, 1, 1, 5, 4, 4, 4, 3, 3, 3, 2, 2, 4, 3, 3, 3, 2, 2, 1, 1, 1, 1, 1, 1, 1, 1, 1, 1, 1, 1, 1, 1, 1, 1, 1, 1, 1, 1, 1, 4, 4, 3, 3, 2, 2, 2, 1, 1, 3, 3, 3, 3, 3, 2, 2, 2, 2, 4, 3, 3, 3, 3, 3, 3, 3, 3, 4, 3, 3, 3, 2, 2, 2, 2, 2, 4, 3, 3, 2, 2, 2, 1, 1, 1, 4, 4, 4, 4, 4, 4, 4, 4, 4, 3, 2, 2, 2, 2, 1, 1, 1, 1, 4, 4, 4, 3, 3, 2, 1, 1, 1, 4, 4, 4, 4, 4, 4, 4, 4, 4, 5, 4, 4, 4, 3, 3, 2, 2, 2, 4, 4, 4, 4, 4, 3, 3, 3, 3, 2, 2, 2, 2, 2, 2, 2, 2, 2, 2, 2, 2, 2, 1, 1, 1, 1, 1, 3, 3, 3, 2, 2, 2, 2, 1, 1, 3, 3, 3, 3, 3, 2, 2, 2, 2, 3, 2, 2, 2, 2, 1, 1, 1, 1, 3, 2, 2, 2, 2, 1, 1, 1, 1, 2, 2, 2, 2, 2, 2, 2, 2, 2, 5, 4, 4, 4, 4, 4, 4, 4, 4, 2, 2, 2, 2, 2, 2, 2, 2, 2, 5, 4, 3, 3, 2, 2, 1, 1, 1, 4, 3, 3, 3, 2, 2, 2, 2, 2, 5, 4, 4, 4, 3, 3, 3, 2, 2, 4, 4, 4, 4, 3, 3, 3, 3, 3, 5, 5, 5, 5, 5, 5, 5, 5, 5, 4, 4, 4, 3, 3, 2, 2, 1, 1, 3, 3, 3, 3, 2, 2, 1, 1, 1, 4, 4, 4, 4, 3, 3, 3, 3, 3, 4, 3, 3, 2, 2, 2, 1, 1, 1, 2, 1, 1, 1, 1, 1, 1, 1, 1, 4, 4, 4, 3, 2, 2, 2, 1, 1, 4, 4, 4, 4, 4, 3, 3, 3, 3, 3, 3, 3, 3, 3, 3, 3, 3, 3, 4, 4, 4, 3, 3, 3, 3, 2, 2, 3, 3, 3, 2, 2, 2, 1, 1, 1, 3, 3, 3, 3, 3, 2, 2, 2, 2, 1, 1, 1, 1, 1, 1, 1, 1, 1, 4, 4, 3, 3, 3, 2, 1, 1, 1, 5, 4, 4, 4, 3, 3, 3, 2, 2, 4, 4, 4, 4, 3, 3, 2, 2, 2, 3, 2, 2, 2, 2, 1, 1, 1, 1, 5, 4, 4, 3, 3, 3, 2, 2, 2, 2, 2, 2, 2, 2, 2, 2, 2, 2, 3, 3, 3, 3, 2, 2, 2, 1, 1, 4, 3, 3, 3, 2, 2, 2, 1, 1, 5, 4, 4, 4, 3, 3, 3, 3, 3, 2, 2, 2, 2, 2, 2, 2, 2, 2, 4, 4, 4, 4, 4, 3, 3, 3, 3, 4, 3, 3, 3, 3, 3, 3, 3, 3, 4, 4, 4, 3, 2, 2, 2, 1, 1, 4, 4, 4, 4, 4, 4, 4, 4, 4, 5, 4, 4, 4, 4, 4, 4, 4, 4, 5, 4, 4, 4, 3, 3, 2, 2, 2, 2, 2, 2, 2, 2, 2, 2, 2, 2, 4, 4, 4, 4, 4, 3, 3, 3, 3, 2, 1, 1, 1, 1, 1, 1, 1, 1, 4, 4, 4, 4, 4, 4, 4, 4, 4, 3, 3, 3, 3, 3, 3, 3, 3, 3, 4, 4, 4, 4, 3, 3, 2, 2, 2, 1, 1, 1, 1, 1, 1, 1, 1, 1, 3, 2, 2, 2, 1, 1, 1, 1, 1, 3, 3, 3, 3, 3, 2, 2, 2, 2, 4, 3, 3, 3, 3, 2, 2, 2, 2, 3, 2, 2, 2, 1, 1, 1, 1, 1, 3, 2, 2, 2, 2, 2, 2, 2, 2, 1, 1, 1, 1, 1, 1, 1, 1, 1, 1, 1, 1, 1, 1, 1, 1, 1, 1, 4, 4, 4, 4, 4, 4, 4, 4, 4, 5, 4, 4, 4, 3, 3, 3, 3, 3, 2, 2, 2, 2, 2, 1, 1, 1, 1, 4, 4, 4, 4, 4, 4, 4, 4, 4, 4, 3, 3, 2, 2, 2, 1, 1, 1, 5, 5, 5, 5, 5, 5, 5, 5, 5, 4, 4, 4, 4, 4, 4, 4, 4, 4, 3, 3, 3, 3, 3, 3, 3, 3, 3, 5, 4, 4, 4, 4, 3, 3, 3, 3, 4, 4, 4, 4, 3, 3, 3, 3, 3, 2, 1, 1, 1, 1, 1, 1, 1, 1, 5, 4, 4, 4, 4, 4, 4, 4, 4, 4, 4, 4, 4, 4, 3, 3, 3, 3, 3, 2, 2, 2, 2, 2, 2, 2, 2, 1, 1, 1, 1, 1, 1, 1, 1, 1, 3, 3, 3, 3, 2, 2, 2, 1, 1, 2, 1, 1, 1, 1, 1, 1, 1, 1, 3, 2, 2, 2, 1, 1, 1, 1, 1
 |4, 4, 4, 4, 4, 3, 3, 3, 3, 4, 3, 3, 3, 2, 2, 2, 1, 1, 5, 4, 3, 3, 2, 2, 1, 1, 1, 3, 2, 2, 2, 2, 2, 2, 2, 2, 5, 5, 5, 5, 5, 5, 5, 5, 5, 2, 2, 2, 2, 2, 1, 1, 1, 1, 5, 4, 4, 3, 3, 3, 3, 2, 2, 4, 3, 3, 2, 2, 2, 1, 1, 1, 4, 3, 3, 3, 3, 3, 3, 3, 3, 3, 3, 3, 3, 3, 3, 3, 3, 3, 2, 1, 1, 1, 1, 1, 1, 1, 1, 5, 4, 4, 4, 4, 4, 4, 4, 4, 3, 3, 3, 3, 3, 3, 3, 3, 3, 2, 2, 2, 2, 2, 2, 2, 2, 2, 3, 2, 2, 2, 2, 2, 2, 2, 2, 3, 3, 3, 3, 3, 3, 3, 3, 3, 3, 2, 2, 2, 2, 1, 1, 1, 1, 3, 3, 3, 3, 3, 3, 3, 3, 3, 3, 3, 3, 2, 2, 2, 1, 1, 1, 3, 3, 3, 3, 2, 2, 2, 1, 1, 3, 3, 3, 3, 2, 2, 2, 2, 2, 5, 4, 3, 3, 3, 2, 2, 1, 1, 5, 4, 4, 4, 4, 4, 4, 4, 4, 4, 3, 3, 2, 2, 2, 1, 1, 1, 4, 4, 4, 4, 3, 3, 2, 2, 2, 4, 4, 4, 4, 4, 4, 4, 4, 4, 4, 4, 4, 4, 4, 3, 3, 3, 3, 5, 4, 4, 3, 3, 2, 1, 1, 1, 5, 4, 4, 4, 4, 3, 3, 3, 3, 3, 2, 2, 2, 1, 1, 1, 1, 1, 4, 3, 3, 3, 2, 2, 2, 2, 2, 3, 3, 3, 3, 3, 3, 3, 3, 3, 4, 4, 4, 3, 3, 2, 1, 1, 1, 4, 4, 4, 4, 4, 3, 3, 3, 3, 4, 4, 4, 4, 3, 3, 3, 3, 3, 4, 4, 4, 3, 3, 2, 1, 1, 1, 2, 2, 2, 2, 2, 2, 2, 2, 2, 3, 2, 2, 2, 2, 1, 1, 1, 1, 2, 2, 2, 2, 2, 1, 1, 1, 1, 5, 4, 4, 4, 4, 4, 4, 4, 4, 5, 4, 4, 4, 3, 3, 3, 3, 3, 4, 4, 4, 4, 4, 4, 4, 4, 4, 3, 3, 3, 3, 3, 3, 3, 3, 3, 4, 3, 3, 3, 2, 2, 2, 2, 2, 4, 3, 3, 3, 3, 3, 3, 3, 3, 3, 3, 3, 2, 2, 2, 1, 1, 1, 3, 2, 2, 2, 2, 2, 2, 2, 2, 3, 3, 3, 3, 3, 3, 3, 3, 3, 4, 4, 4, 3, 3, 2, 2, 1, 1, 4, 4, 4, 4, 4, 4, 4, 4, 4, 2, 2, 2, 2, 2, 2, 2, 2, 2, 5, 4, 4, 4, 4, 4, 4, 4, 4, 3, 2, 2, 2, 2, 2, 2, 2, 2, 2, 2, 2, 2, 2, 1, 1, 1, 1, 5, 4, 4, 3, 2, 2, 1, 1, 1, 3, 3, 3, 3, 3, 3, 3, 3, 3, 5, 4, 4, 3, 3, 3, 3, 2, 2, 4, 3, 3, 3, 2, 2, 1, 1, 1, 4, 3, 3, 3, 3, 2, 2, 2, 2, 1, 1, 1, 1, 1, 1, 1, 1, 1, 5, 4, 4, 3, 3, 3, 3, 2, 2, 5, 4, 4, 4, 3, 3, 3, 3, 3, 1, 1, 1, 1, 1, 1, 1, 1, 1, 3, 3, 3, 2, 2, 2, 1, 1, 1, 5, 4, 4, 3, 2, 2, 1, 1, 1, 3, 3, 3, 3, 2, 2, 2, 2, 2, 4, 3, 3, 3, 3, 3, 3, 3, 3, 3, 3, 3, 3, 3, 2, 2, 2, 2, 3, 3, 3, 3, 2, 2, 2, 1, 1, 5, 4, 4, 4, 3, 3, 2, 2, 2, 3, 3, 3, 2, 2, 2, 1, 1, 1, 2, 2, 2, 2, 2, 2, 2, 2, 2, 1, 1, 1, 1, 1, 1, 1, 1, 1, 5, 5, 5, 5, 5, 5, 5, 5, 5, 4, 3, 3, 3, 2, 2, 2, 1, 1, 3, 2, 2, 2, 2, 2, 2, 2, 2, 5, 4, 4, 4, 4, 4, 4, 4, 4, 5, 4, 4, 4, 3, 3, 3, 3, 3, 1, 1, 1, 1, 1, 1, 1, 1, 1, 4, 3, 3, 2, 2, 2, 2, 1, 1, 3, 3, 3, 3, 3, 3, 3, 3, 3, 2, 2, 2, 2, 2, 2, 2, 2, 2, 4, 3, 3, 3, 2, 2, 2, 1, 1, 5, 5, 5, 5, 5, 5, 5, 5, 5, 2, 2, 2, 2, 1, 1, 1, 1, 1, 3, 3, 3, 2, 2, 2, 1, 1, 1, 3, 3, 3, 3, 3, 3, 3, 3, 3, 4, 4, 4, 4, 3, 3, 3, 3, 3, 4, 4, 4, 3, 2, 2, 1, 1, 1, 2, 1, 1, 1, 1, 1, 1, 1, 1, 5, 4, 3, 3, 2, 2, 2, 1, 1, 5, 5, 5, 5, 5, 5, 5, 5, 5, 3, 3, 3, 3, 2, 2, 2, 1, 1, 3, 2, 2, 2, 2, 2, 2, 2, 2, 4, 4, 4, 3, 3, 3, 3, 2, 2, 5, 4, 4, 4, 4, 4, 4, 4, 4, 3, 2, 2, 2, 1, 1, 1, 1, 1, 2, 1, 1, 1, 1, 1, 1, 1, 1, 1, 1, 1, 1, 1, 1, 1, 1, 1, 3, 3, 3, 3, 3, 3, 3, 3, 3
 |18, 18, 17, 16, 14, 14, 12, 12, 11, 19, 18, 18, 18, 17, 17, 17, 16, 16, 23, 20, 19, 15, 13, 13, 9, 7, 6, 22, 21, 20, 20, 18, 18, 16, 15, 15, 26, 24, 22, 19, 18, 15, 11, 9, 7, 25, 22, 21, 19, 18, 16, 15, 13, 13, 25, 24, 21, 19, 15, 15, 11, 10, 9, 13, 12, 12, 11, 11, 10, 9, 9, 8, 22, 22, 21, 20, 18, 17, 17, 16, 14, 7, 7, 7, 7, 7, 6, 6, 6, 6, 8, 7, 6, 4, 4, 3, 3, 2, 1, 26, 24, 22, 22, 19, 19, 16, 16, 15, 17, 17, 15, 13, 12, 12, 11, 8, 7, 9, 9, 7, 7, 5, 4, 3, 2, 1, 29, 27, 27, 26, 24, 23, 23, 21, 21, 28, 24, 23, 19, 15, 13, 11, 10, 7, 14, 14, 14, 14, 13, 13, 13, 13, 13, 4, 3, 3, 2, 2, 2, 1, 1, 1, 16, 14, 13, 12, 11, 10, 10, 8, 7, 26, 24, 22, 22, 19, 15, 13, 11, 10, 22, 21, 20, 19, 18, 16, 15, 13, 12, 14, 14, 12, 12, 11, 10, 9, 7, 7, 22, 21, 20, 19, 19, 18, 18, 16, 16, 13, 12, 12, 11, 9, 9, 7, 7, 6, 11, 11, 10, 9, 6, 5, 4, 2, 2, 28, 26, 26, 25, 24, 24, 24, 23, 22, 26, 24, 23, 23, 21, 21, 20, 19, 18, 13, 13, 12, 11, 11, 11, 10, 9, 9, 26, 22, 19, 19, 16, 14, 9, 5, 3, 10, 10, 9, 8, 7, 5, 4, 3, 3, 5, 4, 4, 3, 3, 2, 1, 1, 1, 18, 16, 16, 14, 13, 11, 11, 9, 9, 15, 14, 13, 11, 9, 9, 7, 6, 4, 18, 15, 13, 12, 12, 10, 9, 6, 5, 16, 15, 14, 12, 12, 11, 11, 9, 9, 14, 13, 11, 11, 10, 9, 8, 7, 7, 26, 26, 25, 24, 23, 22, 20, 20, 18, 12, 11, 10, 8, 7, 6, 4, 3, 3, 26, 25, 25, 25, 25, 24, 24, 24, 24, 27, 24, 23, 20, 17, 16, 13, 11, 11, 26, 25, 24, 23, 20, 19, 18, 17, 16, 9, 8, 8, 7, 6, 6, 5, 5, 5, 27, 25, 25, 25, 23, 23, 23, 21, 21, 26, 26, 25, 24, 22, 22, 21, 19, 18, 15, 15, 15, 15, 15, 15, 15, 15, 15, 25, 25, 24, 22, 21, 19, 16, 15, 15, 21, 19, 16, 16, 13, 12, 10, 9, 6, 22, 20, 18, 18, 16, 15, 15, 14, 12, 13, 13, 12, 12, 11, 11, 10, 10, 10, 27, 26, 25, 25, 23, 21, 19, 18, 18, 11, 9, 9, 7, 7, 7, 5, 5, 4, 11, 11, 10, 9, 9, 8, 7, 7, 6, 21, 21, 21, 21, 21, 21, 21, 21, 21, 11, 11, 10, 9, 8, 7, 7, 5, 5, 7, 7, 7, 7, 7, 6, 6, 6, 6, 13, 11, 11, 10, 7, 7, 5, 4, 3, 29, 29, 29, 29, 29, 29, 29, 29, 29, 23, 21, 20, 18, 17, 17, 15, 14, 13, 21, 20, 18, 18, 15, 14, 12, 12, 10, 11, 9, 7, 7, 6, 5, 3, 2, 2, 12, 10, 9, 7, 7, 6, 5, 4, 3, 26, 21, 20, 18, 13, 10, 8, 4, 4, 15, 13, 12, 10, 10, 8, 6, 5, 3, 8, 7, 6, 5, 4, 4, 3, 2, 1, 13, 12, 10, 10, 9, 9, 7, 7, 6, 14, 14, 12, 9, 7, 7, 5, 3, 2, 20, 17, 16, 15, 13, 12, 11, 9, 7, 21, 19, 18, 17, 13, 11, 7, 6, 3, 17, 16, 15, 14, 13, 11, 11, 9, 9, 27, 25, 24, 23, 23, 21, 20, 19, 19, 14, 12, 12, 10, 10, 9, 9, 7, 7, 13, 11, 10, 9, 7, 6, 3, 2, 1, 25, 22, 21, 17, 16, 13, 9, 6, 6, 29, 24, 22, 19, 17, 15, 13, 9, 7, 21, 18, 17, 15, 14, 13, 12, 9, 8, 21, 19, 19, 17, 17, 15, 15, 13, 13, 28, 28, 27, 27, 26, 26, 25, 25, 24, 12, 12, 11, 11, 10, 10, 9, 8, 8, 30, 29, 28, 26, 26, 25, 23, 23, 21, 23, 22, 21, 20, 17, 17, 16, 14, 13, 16, 14, 13, 12, 11, 10, 9, 8, 8, 10, 9, 9, 8, 8, 8, 7, 7, 6, 22, 22, 21, 21, 20, 20, 20, 19, 19, 17, 16, 15, 14, 11, 11, 10, 8, 8, 22, 21, 17, 14, 11, 11, 7, 6, 4, 24, 20, 17, 16, 13, 9, 9, 5, 3, 22, 21, 21, 21, 21, 21, 21, 21, 21, 18, 17, 16, 16, 14, 13, 13, 12, 10, 23, 22, 18, 17, 13, 11, 8, 7, 5, 22, 18, 17, 15, 12, 10, 8, 6, 5, 25, 25, 23, 19, 18, 17, 14, 13, 9, 28, 25, 23, 19, 16, 15, 13, 11, 10, 23, 21, 21, 20, 19, 18, 18, 16, 16, 16, 13, 11, 10, 8, 6, 5, 5, 3, 27, 26, 24, 24, 23, 21, 21, 20, 19, 3, 2, 2, 2, 2, 2, 2, 2, 2, 7, 6, 5, 5, 4, 4, 3, 2, 2, 19, 18, 17, 16, 15, 13, 11, 10, 8, 21, 21, 18, 15, 14, 13, 12, 9, 7, 16, 14, 13, 12, 11, 11, 10, 9, 7
 |19, 18, 18, 18, 17, 17, 17, 17, 17, 23, 21, 21, 19, 17, 17, 15, 14, 13, 11, 11, 9, 9, 8, 7, 5, 4, 4, 25, 24, 23, 22, 21, 20, 19, 18, 18, 11, 9, 9, 8, 6, 5, 5, 4, 2, 29, 29, 29, 29, 29, 29, 29, 29, 29, 14, 13, 13, 13, 13, 12, 12, 12, 12, 21, 19, 19, 17, 17, 16, 16, 14, 14, 9, 8, 7, 7, 7, 6, 6, 5, 5, 15, 14, 14, 13, 13, 12, 12, 11, 11, 29, 26, 23, 19, 18, 16, 13, 11, 8, 16, 14, 13, 11, 10, 9, 6, 3, 2, 20, 18, 16, 16, 14, 13, 12, 10, 8, 21, 20, 20, 20, 19, 19, 19, 19, 19, 28, 26, 26, 25, 24, 24, 24, 23, 22, 29, 26, 26, 23, 23, 20, 18, 16, 16, 20, 19, 17, 16, 16, 16, 14, 14, 13, 19, 17, 15, 14, 12, 9, 9, 5, 5, 12, 11, 11, 10, 9, 8, 7, 5, 5, 8, 7, 7, 6, 5, 5, 4, 3, 2, 28, 24, 24, 21, 20, 18, 16, 12, 12, 24, 22, 18, 18, 14, 13, 12, 10, 6, 22, 21, 21, 20, 20, 20, 19, 19, 19, 10, 9, 9, 7, 7, 5, 5, 3, 3, 27, 26, 22, 22, 20, 17, 16, 12, 12, 22, 18, 16, 16, 13, 10, 9, 8, 6, 22, 21, 19, 17, 15, 14, 14, 11, 9, 24, 22, 19, 17, 17, 15, 12, 11, 9, 25, 23, 19, 19, 15, 14, 11, 8, 6, 25, 22, 21, 18, 18, 17, 15, 12, 10, 29, 27, 26, 25, 25, 25, 24, 22, 22, 15, 15, 15, 14, 14, 13, 12, 12, 12, 17, 14, 12, 11, 9, 8, 7, 5, 4, 15, 15, 12, 12, 9, 7, 6, 5, 4, 22, 21, 20, 19, 17, 16, 15, 14, 13, 12, 11, 10, 10, 8, 6, 4, 3, 2, 26, 25, 23, 23, 21, 20, 18, 15, 14, 19, 17, 15, 13, 12, 12, 11, 9, 7, 4, 4, 4, 3, 3, 2, 1, 1, 1, 24, 22, 19, 16, 15, 11, 10, 7, 4, 20, 20, 20, 20, 20, 20, 20, 20, 20, 28, 26, 23, 19, 18, 17, 13, 10, 7, 9, 9, 8, 7, 5, 4, 4, 3, 2, 25, 21, 17, 16, 14, 10, 10, 5, 5, 11, 10, 10, 8, 8, 7, 6, 5, 4, 14, 13, 13, 13, 13, 13, 13, 13, 13, 12, 11, 10, 9, 9, 9, 7, 7, 6, 14, 14, 14, 14, 13, 13, 13, 13, 13, 29, 27, 24, 22, 21, 18, 17, 15, 14, 2, 2, 2, 2, 2, 2, 2, 2, 2, 22, 21, 21, 19, 19, 18, 17, 16, 16, 26, 26, 25, 24, 23, 23, 21, 20, 20, 18, 16, 14, 12, 12, 10, 8, 6, 5, 25, 23, 23, 22, 22, 21, 20, 19, 19, 15, 14, 14, 14, 13, 13, 12, 12, 12, 21, 19, 19, 18, 17, 17, 17, 15, 15, 26, 23, 21, 20, 19, 17, 13, 13, 11, 29, 28, 28, 28, 27, 27, 26, 25, 25, 16, 13, 12, 10, 9, 6, 4, 4, 1, 24, 21, 21, 15, 13, 12, 6, 3, 1, 26, 25, 23, 23, 22, 20, 20, 18, 18, 2, 2, 2, 2, 2, 1, 1, 1, 1, 10, 8, 8, 8, 6, 6, 5, 5, 4, 27, 26, 25, 23, 21, 19, 17, 14, 14, 22, 19, 17, 17, 13, 13, 11, 9, 8, 28, 26, 26, 25, 23, 22, 22, 21, 20, 23, 22, 21, 20, 19, 19, 18, 16, 16, 22, 22, 22, 21, 21, 21, 21, 20, 20, 28, 24, 24, 20, 18, 16, 16, 14, 12, 5, 5, 4, 4, 4, 3, 3, 2, 2, 15, 14, 14, 14, 13, 12, 11, 11, 10, 12, 11, 10, 9, 8, 6, 5, 5, 4, 24, 23, 23, 21, 21, 20, 20, 19, 18, 21, 19, 19, 14, 13, 11, 7, 7, 4, 30, 28, 27, 26, 23, 22, 21, 20, 18, 18, 16, 16, 14, 11, 11, 10, 7, 6, 14, 12, 12, 10, 8, 7, 7, 4, 4, 30, 25, 25, 22, 19, 16, 12, 11, 10, 16, 14, 13, 13, 12, 11, 10, 9, 9, 24, 22, 18, 17, 12, 9, 9, 4, 3, 29, 29, 29, 29, 29, 29, 29, 29, 29, 10, 10, 10, 10, 9, 9, 9, 8, 8, 9, 8, 7, 6, 6, 5, 4, 3, 3, 18, 17, 16, 14, 14, 11, 9, 8, 7, 22, 19, 18, 17, 14, 12, 11, 10, 8, 25, 22, 20, 19, 16, 16, 13, 10, 10, 1, 1, 1, 1, 1, 1, 1, 1, 1, 29, 26, 26, 25, 22, 22, 19, 17, 17, 16, 15, 14, 12, 11, 10, 8, 7, 5, 14, 14, 14, 14, 14, 14, 14, 14, 14, 29, 28, 28, 26, 26, 25, 24, 22, 22, 12, 10, 10, 9, 8, 8, 7, 7, 6, 19, 18, 16, 15, 14, 12, 12, 10, 8, 30, 27, 25, 25, 22, 21, 20, 17, 17, 23, 23, 22, 19, 18, 18, 16, 14, 14, 8, 8, 8, 7, 7, 7, 6, 6, 6, 21, 21, 21, 21, 21, 21, 21, 21, 21, 30, 29, 28, 28, 27, 27, 27, 26, 26, 24, 24, 21, 17, 16, 13, 11, 9, 6, 28, 24, 23, 21, 19, 17, 14, 11, 9
 |16, 16, 15, 15, 14, 14, 13, 13, 13, 27, 24, 22, 19, 17, 12, 11, 8, 5, 29, 27, 26, 24, 23, 23, 21, 20, 18, 27, 25, 24, 22, 19, 18, 16, 15, 14, 20, 19, 18, 16, 16, 14, 13, 11, 10, 7, 5, 5, 5, 4, 3, 3, 2, 2, 11, 10, 10, 10, 9, 9, 9, 9, 9, 29, 28, 27, 27, 26, 25, 25, 24, 24, 21, 19, 19, 18, 18, 18, 17, 17, 16, 23, 20, 17, 17, 13, 12, 11, 9, 6, 26, 23, 21, 16, 15, 10, 8, 4, 3, 11, 10, 9, 8, 8, 7, 6, 5, 5, 22, 21, 20, 20, 19, 19, 17, 16, 16, 17, 17, 15, 14, 13, 12, 10, 9, 8, 24, 24, 24, 23, 23, 23, 22, 22, 22, 23, 22, 22, 21, 21, 20, 19, 19, 19, 13, 12, 11, 9, 8, 7, 5, 5, 4, 9, 8, 8, 8, 7, 7, 7, 6, 6, 17, 15, 14, 13, 11, 11, 10, 8, 8, 19, 16, 14, 11, 10, 8, 8, 5, 3, 21, 17, 16, 14, 12, 12, 8, 6, 5, 27, 27, 27, 27, 27, 26, 26, 26, 26, 19, 18, 18, 18, 17, 17, 17, 17, 17, 28, 27, 25, 23, 19, 18, 15, 11, 11, 4, 4, 4, 4, 4, 4, 4, 4, 4, 19, 17, 17, 17, 16, 16, 15, 15, 14, 26, 24, 20, 18, 17, 15, 12, 8, 6, 9, 8, 7, 7, 5, 5, 4, 2, 2, 30, 26, 24, 19, 15, 13, 9, 8, 3, 26, 25, 23, 21, 18, 17, 16, 14, 10, 9, 8, 8, 7, 6, 5, 5, 3, 3, 10, 10, 10, 10, 10, 10, 10, 10, 10, 22, 21, 21, 20, 20, 19, 19, 17, 17, 21, 20, 19, 18, 18, 16, 16, 15, 13, 14, 14, 14, 14, 14, 14, 14, 14, 14, 18, 17, 16, 16, 14, 13, 12, 11, 11, 20, 19, 19, 17, 17, 17, 16, 15, 14, 18, 17, 14, 14, 11, 10, 9, 7, 5, 16, 13, 12, 9, 9, 7, 4, 4, 2, 22, 22, 22, 22, 22, 22, 22, 22, 22, 27, 25, 21, 19, 17, 13, 11, 10, 8, 24, 24, 23, 21, 21, 21, 19, 19, 18, 22, 20, 17, 15, 13, 12, 9, 7, 4, 23, 21, 20, 20, 19, 17, 16, 14, 14, 28, 27, 26, 23, 22, 20, 19, 18, 15, 11, 11, 11, 10, 10, 9, 8, 8, 8, 28, 27, 27, 25, 25, 24, 23, 22, 22, 11, 11, 10, 9, 9, 9, 8, 7, 7, 10, 9, 9, 8, 8, 8, 7, 7, 7, 24, 22, 22, 22, 21, 20, 20, 19, 19, 13, 13, 13, 13, 12, 12, 12, 12, 12, 17, 17, 13, 11, 9, 9, 5, 4, 2, 8, 6, 6, 5, 5, 4, 4, 4, 3, 8, 7, 7, 7, 7, 7, 7, 7, 7, 9, 9, 9, 9, 9, 8, 8, 8, 8, 27, 25, 25, 23, 20, 20, 17, 16, 13, 21, 21, 18, 17, 14, 10, 9, 6, 5, 19, 17, 17, 17, 16, 15, 15, 15, 14, 18, 17, 17, 16, 16, 16, 15, 14, 14, 28, 25, 20, 16, 14, 11, 10, 4, 2, 11, 9, 9, 7, 7, 7, 5, 4, 4, 29, 24, 22, 21, 19, 17, 16, 14, 10, 13, 13, 13, 13, 13, 13, 13, 13, 13, 19, 17, 16, 16, 14, 12, 10, 8, 7, 19, 18, 17, 17, 17, 16, 15, 15, 15, 23, 22, 22, 21, 20, 18, 16, 15, 15, 19, 18, 18, 18, 18, 18, 18, 18, 18, 13, 12, 11, 11, 9, 8, 8, 7, 6, 11, 10, 9, 9, 8, 8, 8, 7, 7, 25, 21, 19, 17, 14, 10, 7, 7, 2, 14, 14, 13, 10, 9, 9, 8, 6, 5, 18, 17, 16, 15, 15, 14, 12, 12, 10, 21, 18, 17, 14, 13, 12, 8, 7, 4, 23, 22, 18, 17, 16, 14, 10, 10, 6, 8, 7, 7, 6, 6, 5, 5, 5, 4, 29, 27, 26, 24, 21, 20, 16, 16, 12, 23, 23, 22, 22, 22, 21, 21, 20, 20, 25, 21, 20, 20, 18, 17, 14, 12, 11, 7, 6, 6, 5, 4, 4, 3, 3, 3, 15, 14, 13, 12, 10, 9, 8, 7, 7, 16, 15, 13, 11, 9, 7, 7, 5, 3, 28, 28, 27, 25, 24, 24, 23, 21, 21, 22, 19, 16, 15, 13, 10, 5, 4, 1, 18, 15, 13, 13, 11, 9, 7, 7, 5, 27, 27, 27, 26, 26, 25, 25, 24, 24, 30, 27, 23, 22, 20, 17, 15, 13, 10, 21, 17, 15, 14, 9, 8, 6, 5, 2, 20, 19, 17, 16, 14, 14, 13, 10, 10, 9, 8, 6, 6, 5, 5, 4, 2, 2, 19, 18, 18, 16, 14, 14, 11, 10, 9, 24, 24, 22, 18, 16, 15, 13, 8, 8, 21, 19, 15, 13, 11, 10, 6, 5, 4, 21, 21, 20, 19, 18, 18, 18, 16, 16, 6, 6, 6, 6, 6, 6, 6, 6, 6, 8, 7, 6, 5, 4, 4, 2, 2, 1, 6, 6, 5, 4, 4, 3, 2, 1, 1, 13, 12, 11, 10, 9, 7, 7, 5, 5, 29, 29, 28, 28, 26, 26, 25, 25, 24, 27, 25, 23, 20, 18, 14, 12, 7, 4, 18, 17, 16, 15, 13, 12, 12, 11, 9
 |21, 21, 20, 18, 16, 16, 15, 13, 13, 19, 19, 17, 14, 11, 11, 8, 7, 5, 21, 17, 17, 15, 10, 8, 8, 5, 4, 26, 25, 21, 19, 16, 12, 10, 9, 5, 20, 19, 19, 19, 19, 19, 19, 19, 19, 24, 23, 22, 19, 18, 18, 15, 13, 12, 21, 21, 21, 21, 21, 21, 21, 21, 21, 10, 9, 9, 9, 9, 9, 9, 9, 9, 25, 25, 24, 22, 22, 21, 20, 19, 19, 9, 8, 8, 7, 6, 5, 3, 3, 1, 22, 21, 17, 16, 14, 11, 8, 6, 4, 27, 26, 25, 24, 23, 22, 21, 20, 19, 22, 22, 22, 22, 21, 21, 21, 21, 21, 12, 12, 12, 12, 12, 12, 12, 12, 12, 28, 25, 23, 17, 14, 14, 11, 7, 3, 25, 23, 22, 21, 21, 21, 19, 19, 18, 13, 11, 9, 8, 6, 6, 3, 2, 1, 17, 16, 13, 11, 9, 8, 6, 5, 3, 20, 20, 19, 17, 16, 16, 15, 13, 13, 18, 16, 16, 16, 15, 14, 14, 12, 12, 22, 21, 20, 19, 19, 18, 18, 17, 16, 24, 23, 24, 23, 23, 22, 22, 22, 22, 23, 23, 23, 23, 23, 23, 23, 23, 22, 21, 21, 19, 19, 18, 16, 14, 13, 12, 26, 24, 21, 21, 19, 16, 15, 12, 11, 25, 25, 24, 22, 21, 20, 19, 19, 18, 17, 15, 14, 14, 13, 13, 12, 11, 10, 27, 27, 25, 24, 22, 21, 20, 20, 18, 30, 27, 24, 20, 19, 16, 13, 10, 9, 13, 13, 11, 10, 9, 9, 8, 7, 6, 28, 26, 25, 23, 22, 21, 20, 18, 17, 27, 27, 27, 27, 27, 27, 27, 27, 26, 15, 15, 15, 14, 14, 14, 14, 13, 13, 22, 18, 17, 16, 15, 13, 10, 10, 8, 22, 21, 18, 16, 16, 15, 12, 11, 9, 13, 11, 10, 10, 9, 8, 7, 6, 5, 8, 8, 8, 8, 8, 8, 8, 8, 8, 27, 21, 20, 17, 15, 11, 11, 8, 5, 26, 23, 22, 20, 20, 19, 16, 15, 15, 26, 24, 23, 22, 22, 22, 21, 19, 19, 29, 28, 27, 26, 26, 26, 25, 24, 24, 27, 26, 26, 26, 25, 25, 24, 24, 24, 8, 8, 8, 7, 6, 6, 5, 5, 5, 27, 26, 25, 24, 21, 21, 18, 18, 17, 25, 24, 22, 22, 18, 17, 16, 14, 13, 19, 17, 17, 15, 15, 15, 14, 12, 11, 8, 7, 6, 6, 5, 4, 4, 3, 3, 30, 24, 24, 20, 18, 16, 13, 11, 7, 19, 19, 18, 17, 17, 16, 16, 14, 14, 19, 19, 19, 19, 19, 19, 19, 19, 18, 26, 24, 23, 22, 18, 17, 14, 12, 10, 15, 15, 14, 12, 11, 9, 9, 8, 7, 14, 13, 12, 12, 11, 10, 10, 9, 8, 24, 18, 18, 15, 13, 8, 7, 5, 1, 21, 19, 18, 18, 17, 15, 14, 12, 11, 26, 25, 24, 24, 24, 23, 23, 22, 22, 7, 7, 6, 6, 5, 5, 4, 3, 3, 12, 11, 9, 8, 8, 6, 6, 4, 4, 27, 25, 25, 25, 24, 23, 23, 23, 22, 16, 16, 16, 16, 16, 16, 16, 16, 16, 22, 20, 20, 19, 18, 18, 17, 15, 15, 23, 22, 19, 18, 18, 15, 15, 12, 11, 20, 19, 17, 14, 12, 12, 10, 6, 4, 27, 26, 25, 24, 24, 23, 23, 23, 22, 20, 19, 18, 17, 17, 16, 15, 14, 14, 5, 4, 4, 4, 4, 3, 3, 3, 3, 29, 27, 27, 25, 25, 23, 22, 22, 21, 19, 17, 14, 12, 10, 10, 7, 5, 4, 19, 17, 17, 14, 14, 12, 11, 9, 9, 23, 22, 22, 21, 21, 20, 20, 19, 19, 10, 8, 8, 7, 5, 5, 3, 2, 2, 11, 11, 11, 10, 10, 9, 8, 8, 8, 24, 22, 21, 20, 20, 19, 19, 18, 17, 29, 27, 26, 23, 21, 20, 19, 17, 17, 19, 18, 18, 18, 18, 17, 17, 17, 17, 27, 26, 24, 21, 21, 19, 18, 15, 14, 29, 29, 28, 26, 26, 25, 25, 24, 23, 10, 10, 9, 9, 9, 8, 8, 7, 7, 4, 3, 3, 3, 3, 2, 2, 2, 2, 22, 22, 19, 17, 12, 10, 9, 6, 4, 20, 19, 18, 18, 17, 17, 16, 16, 15, 23, 23, 21, 20, 18, 18, 17, 14, 13, 1, 1, 1, 1, 1, 1, 1, 1, 1, 25, 24, 24, 23, 23, 23, 22, 22, 22, 26, 25, 24, 24, 22, 22, 22, 21, 20, 23, 20, 20, 19, 16, 14, 12, 12, 10, 16, 13, 12, 9, 9, 8, 5, 2, 2, 26, 24, 24, 21, 20, 20, 17, 17, 15, 10, 9, 9, 9, 9, 9, 9, 9, 9, 11, 10, 9, 8, 7, 7, 6, 5, 4, 25, 22, 21, 19, 17, 14, 13, 10, 10, 18, 15, 15, 13, 10, 10, 6, 5, 3, 24, 21, 19, 19, 17, 12, 10, 8, 6, 25, 24, 22, 19, 17, 15, 15, 13, 10, 5, 4, 4, 4, 4, 4, 4, 4, 4, 19, 19, 15, 14, 13, 9, 7, 6, 4, 8, 7, 7, 7, 6, 6, 6, 5, 4, 6, 6, 6, 5, 5, 5, 4, 4, 4, 24, 23, 23, 22, 22, 22, 21, 21, 21, 8, 8, 8, 8, 8, 7, 7, 7, 7|];